p cnf 7230 17
-2494 -3124 3629 0
3124 -3629 0
-1832 -3004 -3634 0
-1830 -3076 -3632 0
-1826 -3138 -3630 0
1832 -3635 0
1830 -3633 0
1826 -3631 0
3634 3635 0
3632 3633 0
3630 3631 0
3004 -3635 0
3076 -3633 0
3138 -3631 0
2512 -3637 0
3628 3629 0
-3628 -3629 0
